c File: flat50_3_0.col
c
c SOURCE: Joseph Culberson (joe@cs.ualberta.ca)
c DESCRIPTION: Quasi-random coloring problem
c              generated with flatness = 0
c                             probability = 0.139
c                             known coloring = 3
c                             random seed = 1233
c              Creation Date:  Tue Jun  9 12:04:21 1998
c Maximum degree = 8 Minimum degree = 2
c p edge 50 115
c cnf created by edge2cnf
p cnf 150 545
-1 -2 0
-1 -3 0
-2 -3 0
1 2 3 0
-4 -5 0
-4 -6 0
-5 -6 0
4 5 6 0
-7 -8 0
-7 -9 0
-8 -9 0
7 8 9 0
-10 -11 0
-10 -12 0
-11 -12 0
10 11 12 0
-13 -14 0
-13 -15 0
-14 -15 0
13 14 15 0
-16 -17 0
-16 -18 0
-17 -18 0
16 17 18 0
-19 -20 0
-19 -21 0
-20 -21 0
19 20 21 0
-22 -23 0
-22 -24 0
-23 -24 0
22 23 24 0
-25 -26 0
-25 -27 0
-26 -27 0
25 26 27 0
-28 -29 0
-28 -30 0
-29 -30 0
28 29 30 0
-31 -32 0
-31 -33 0
-32 -33 0
31 32 33 0
-34 -35 0
-34 -36 0
-35 -36 0
34 35 36 0
-37 -38 0
-37 -39 0
-38 -39 0
37 38 39 0
-40 -41 0
-40 -42 0
-41 -42 0
40 41 42 0
-43 -44 0
-43 -45 0
-44 -45 0
43 44 45 0
-46 -47 0
-46 -48 0
-47 -48 0
46 47 48 0
-49 -50 0
-49 -51 0
-50 -51 0
49 50 51 0
-52 -53 0
-52 -54 0
-53 -54 0
52 53 54 0
-55 -56 0
-55 -57 0
-56 -57 0
55 56 57 0
-58 -59 0
-58 -60 0
-59 -60 0
58 59 60 0
-61 -62 0
-61 -63 0
-62 -63 0
61 62 63 0
-64 -65 0
-64 -66 0
-65 -66 0
64 65 66 0
-67 -68 0
-67 -69 0
-68 -69 0
67 68 69 0
-70 -71 0
-70 -72 0
-71 -72 0
70 71 72 0
-73 -74 0
-73 -75 0
-74 -75 0
73 74 75 0
-76 -77 0
-76 -78 0
-77 -78 0
76 77 78 0
-79 -80 0
-79 -81 0
-80 -81 0
79 80 81 0
-82 -83 0
-82 -84 0
-83 -84 0
82 83 84 0
-85 -86 0
-85 -87 0
-86 -87 0
85 86 87 0
-88 -89 0
-88 -90 0
-89 -90 0
88 89 90 0
-91 -92 0
-91 -93 0
-92 -93 0
91 92 93 0
-94 -95 0
-94 -96 0
-95 -96 0
94 95 96 0
-97 -98 0
-97 -99 0
-98 -99 0
97 98 99 0
-100 -101 0
-100 -102 0
-101 -102 0
100 101 102 0
-103 -104 0
-103 -105 0
-104 -105 0
103 104 105 0
-106 -107 0
-106 -108 0
-107 -108 0
106 107 108 0
-109 -110 0
-109 -111 0
-110 -111 0
109 110 111 0
-112 -113 0
-112 -114 0
-113 -114 0
112 113 114 0
-115 -116 0
-115 -117 0
-116 -117 0
115 116 117 0
-118 -119 0
-118 -120 0
-119 -120 0
118 119 120 0
-121 -122 0
-121 -123 0
-122 -123 0
121 122 123 0
-124 -125 0
-124 -126 0
-125 -126 0
124 125 126 0
-127 -128 0
-127 -129 0
-128 -129 0
127 128 129 0
-130 -131 0
-130 -132 0
-131 -132 0
130 131 132 0
-133 -134 0
-133 -135 0
-134 -135 0
133 134 135 0
-136 -137 0
-136 -138 0
-137 -138 0
136 137 138 0
-139 -140 0
-139 -141 0
-140 -141 0
139 140 141 0
-142 -143 0
-142 -144 0
-143 -144 0
142 143 144 0
-145 -146 0
-145 -147 0
-146 -147 0
145 146 147 0
-148 -149 0
-148 -150 0
-149 -150 0
148 149 150 0
-64 -1 0
-65 -2 0
-66 -3 0
-112 -1 0
-113 -2 0
-114 -3 0
-115 -1 0
-116 -2 0
-117 -3 0
-130 -1 0
-131 -2 0
-132 -3 0
-61 -4 0
-62 -5 0
-63 -6 0
-79 -4 0
-80 -5 0
-81 -6 0
-91 -4 0
-92 -5 0
-93 -6 0
-70 -7 0
-71 -8 0
-72 -9 0
-133 -7 0
-134 -8 0
-135 -9 0
-52 -10 0
-53 -11 0
-54 -12 0
-55 -10 0
-56 -11 0
-57 -12 0
-61 -10 0
-62 -11 0
-63 -12 0
-115 -10 0
-116 -11 0
-117 -12 0
-118 -10 0
-119 -11 0
-120 -12 0
-127 -10 0
-128 -11 0
-129 -12 0
-136 -10 0
-137 -11 0
-138 -12 0
-58 -13 0
-59 -14 0
-60 -15 0
-73 -13 0
-74 -14 0
-75 -15 0
-88 -13 0
-89 -14 0
-90 -15 0
-103 -13 0
-104 -14 0
-105 -15 0
-58 -16 0
-59 -17 0
-60 -18 0
-79 -16 0
-80 -17 0
-81 -18 0
-106 -16 0
-107 -17 0
-108 -18 0
-109 -16 0
-110 -17 0
-111 -18 0
-121 -16 0
-122 -17 0
-123 -18 0
-148 -16 0
-149 -17 0
-150 -18 0
-103 -19 0
-104 -20 0
-105 -21 0
-139 -19 0
-140 -20 0
-141 -21 0
-148 -19 0
-149 -20 0
-150 -21 0
-58 -22 0
-59 -23 0
-60 -24 0
-70 -22 0
-71 -23 0
-72 -24 0
-85 -22 0
-86 -23 0
-87 -24 0
-103 -22 0
-104 -23 0
-105 -24 0
-142 -22 0
-143 -23 0
-144 -24 0
-148 -22 0
-149 -23 0
-150 -24 0
-52 -25 0
-53 -26 0
-54 -27 0
-76 -25 0
-77 -26 0
-78 -27 0
-85 -25 0
-86 -26 0
-87 -27 0
-100 -25 0
-101 -26 0
-102 -27 0
-124 -25 0
-125 -26 0
-126 -27 0
-64 -28 0
-65 -29 0
-66 -30 0
-85 -28 0
-86 -29 0
-87 -30 0
-97 -28 0
-98 -29 0
-99 -30 0
-112 -28 0
-113 -29 0
-114 -30 0
-127 -28 0
-128 -29 0
-129 -30 0
-142 -28 0
-143 -29 0
-144 -30 0
-82 -31 0
-83 -32 0
-84 -33 0
-127 -31 0
-128 -32 0
-129 -33 0
-133 -31 0
-134 -32 0
-135 -33 0
-58 -34 0
-59 -35 0
-60 -36 0
-70 -34 0
-71 -35 0
-72 -36 0
-73 -34 0
-74 -35 0
-75 -36 0
-79 -34 0
-80 -35 0
-81 -36 0
-124 -34 0
-125 -35 0
-126 -36 0
-133 -34 0
-134 -35 0
-135 -36 0
-88 -37 0
-89 -38 0
-90 -39 0
-91 -37 0
-92 -38 0
-93 -39 0
-112 -37 0
-113 -38 0
-114 -39 0
-121 -37 0
-122 -38 0
-123 -39 0
-64 -40 0
-65 -41 0
-66 -42 0
-91 -40 0
-92 -41 0
-93 -42 0
-106 -40 0
-107 -41 0
-108 -42 0
-112 -40 0
-113 -41 0
-114 -42 0
-148 -40 0
-149 -41 0
-150 -42 0
-67 -43 0
-68 -44 0
-69 -45 0
-70 -43 0
-71 -44 0
-72 -45 0
-136 -43 0
-137 -44 0
-138 -45 0
-142 -43 0
-143 -44 0
-144 -45 0
-61 -46 0
-62 -47 0
-63 -48 0
-73 -46 0
-74 -47 0
-75 -48 0
-115 -46 0
-116 -47 0
-117 -48 0
-73 -49 0
-74 -50 0
-75 -51 0
-76 -49 0
-77 -50 0
-78 -51 0
-82 -49 0
-83 -50 0
-84 -51 0
-88 -49 0
-89 -50 0
-90 -51 0
-130 -49 0
-131 -50 0
-132 -51 0
-145 -49 0
-146 -50 0
-147 -51 0
-121 -52 0
-122 -53 0
-123 -54 0
-142 -52 0
-143 -53 0
-144 -54 0
-115 -55 0
-116 -56 0
-117 -57 0
-130 -55 0
-131 -56 0
-132 -57 0
-106 -58 0
-107 -59 0
-108 -60 0
-121 -58 0
-122 -59 0
-123 -60 0
-115 -61 0
-116 -62 0
-117 -63 0
-127 -61 0
-128 -62 0
-129 -63 0
-139 -61 0
-140 -62 0
-141 -63 0
-103 -64 0
-104 -65 0
-105 -66 0
-109 -64 0
-110 -65 0
-111 -66 0
-121 -64 0
-122 -65 0
-123 -66 0
-142 -64 0
-143 -65 0
-144 -66 0
-103 -67 0
-104 -68 0
-105 -69 0
-145 -67 0
-146 -68 0
-147 -69 0
-139 -70 0
-140 -71 0
-141 -72 0
-115 -73 0
-116 -74 0
-117 -75 0
-139 -73 0
-140 -74 0
-141 -75 0
-142 -73 0
-143 -74 0
-144 -75 0
-145 -73 0
-146 -74 0
-147 -75 0
-127 -76 0
-128 -77 0
-129 -78 0
-118 -79 0
-119 -80 0
-120 -81 0
-109 -82 0
-110 -83 0
-111 -84 0
-139 -82 0
-140 -83 0
-141 -84 0
-124 -85 0
-125 -86 0
-126 -87 0
-148 -85 0
-149 -86 0
-150 -87 0
-148 -88 0
-149 -89 0
-150 -90 0
-103 -91 0
-104 -92 0
-105 -93 0
-118 -91 0
-119 -92 0
-120 -93 0
-121 -91 0
-122 -92 0
-123 -93 0
-145 -91 0
-146 -92 0
-147 -93 0
-103 -94 0
-104 -95 0
-105 -96 0
-142 -94 0
-143 -95 0
-144 -96 0
-115 -97 0
-116 -98 0
-117 -99 0
-130 -97 0
-131 -98 0
-132 -99 0
-136 -97 0
-137 -98 0
-138 -99 0
-148 -97 0
-149 -98 0
-150 -99 0
-109 -100 0
-110 -101 0
-111 -102 0
